100 8
913 308
404 783
513 618
158 168
441 521
578 723
274 226
610 509
361 284
627 120
608 498
202 901
718 401
282 737
267 298
334 777
93 175
635 140
587 262
849 666
595 872
892 298
742 775
711 356
681 768
335 720
646 902
380 198
202 872
368 197
182 415
183 166
643 205
644 795
561 89
654 212
979 633
392 893
122 293
279 345
697 846
356 323
663 869
6 218
684 816
376 749
202 248
577 916
639 810
326 283
191 385
508 771
457 287
848 900
182 214
371 789
66 236
912 658
593 772
351 160
716 411
568 812
888 587
860 926
854 262
538 593
900 553
989 536
12 193
597 142
609 644
393 806
711 758
104 193
618 792
874 603
658 904
487 267
317 378
494 694
237 294
857 760
372 706
601 532
619 537
859 779
778 909
903 404
591 689
367 752
481 728
731 919
736 747
575 445
689 822
186 139
352 240
774 329
194 283
260 287
